
<<< setup


<<< generate

Version identifier: 22.1.1.0 | 2022-11-28 | 9160aff4d
CPXPARAM_TimeLimit                               1800
Found incumbent of value 0.000000 after 0.00 sec. (0.02 ticks)
Tried aggregator 1 time.
MIP Presolve eliminated 33 rows and 0 columns.
Reduced MIP has 600 rows, 528 columns, and 2160 nonzeros.
Reduced MIP has 496 binaries, 32 generals, 0 SOSs, and 0 indicators.
Presolve time = 0.00 sec. (0.96 ticks)
Probing time = 0.00 sec. (0.41 ticks)
Tried aggregator 1 time.
Detecting symmetries...
Reduced MIP has 600 rows, 528 columns, and 2160 nonzeros.
Reduced MIP has 496 binaries, 32 generals, 0 SOSs, and 0 indicators.
Presolve time = 0.00 sec. (1.60 ticks)
Probing time = 0.00 sec. (0.45 ticks)
Clique table members: 240.
MIP emphasis: balance optimality and feasibility.
MIP search method: dynamic search.
Parallel mode: deterministic, using up to 8 threads.
Root relaxation solution time = 0.00 sec. (1.46 ticks)

        Nodes                                         Cuts/
   Node  Left     Objective  IInf  Best Integer    Best Bound    ItCnt     Gap

*     0+    0                            0.0000       30.0000              --- 
*     0+    0                            4.0000       30.0000           650.00%
      0     0       30.0000   174        4.0000       30.0000      225  650.00%
      0     0       30.0000    28        4.0000       Cuts: 5      230  650.00%
      0     0       30.0000     8        4.0000      Cuts: 15      245  650.00%
      0     0       30.0000     6        4.0000       Cuts: 2      248  650.00%
*     0+    0                           30.0000       30.0000             0.00%
      0     0        cutoff             30.0000       30.0000      248    0.00%
Elapsed time = 0.03 sec. (36.93 ticks, tree = 0.01 MB, solutions = 3)

Implied bound cuts applied:  5
Mixed integer rounding cuts applied:  2
Lift and project cuts applied:  2
Gomory fractional cuts applied:  6

Root node processing (before b&c):
  Real time             =    0.03 sec. (36.97 ticks)
Parallel b&c, 8 threads:
  Real time             =    0.00 sec. (0.00 ticks)
  Sync time (average)   =    0.00 sec.
  Wait time (average)   =    0.00 sec.
                          ------------
Total (root+branch&cut) =    0.03 sec. (36.97 ticks)

<<< solve


OBJECTIVE: 30

<<< post process


<<< done

